submitit INFO (2023-04-30 13:43:43,423) - Starting with JobEnvironment(job_id=27527, hostname=cpunode2, local_rank=0(5), node=0(1), global_rank=0(5))
submitit INFO (2023-04-30 13:43:43,423) - Loading pickle: /h/30/pashootan/Matrix-Mult-CP/src/../logs/2x2x2_5_Apr30_13:43:39/27527_submitted.pkl
 ! --------------------------------------------------- CP Optimizer 22.1.1.0 --
 ! Satisfiability problem - 60 variables, 164 constraints
 ! TimeLimit            = 7200
 ! Workers              = 8
 ! LogPeriod            = 10000000
 ! RandomSeed           = 8365
 ! Initial process time : 0.02s (0.02s extraction + 0.00s propagation)
 !  . Log search space  : 95.1 (before), 95.1 (after)
 !  . Memory usage      : 502.6 kB (before), 502.6 kB (after)
 ! Using parallel search with 8 workers.
 ! ----------------------------------------------------------------------------
 !               Branches  Non-fixed    W       Branch decision
                   10000k          7    8            -
                   10000k          6    4        -1 != U4_2
                   10000k          7    7         0 != U4_1
                   10000k          6    1   F     1 != V4_2
                   10000k          7    2         1  = W1_3
                   10000k          6    5   F     1  = W0_1
                   10000k          7    3        -1 != U0_1
                   10000k          7    6   F     1 != W2_0
                   20000k          7    8         1  = U4_1
                   20000k          7    2   F     0  = V1_1
                   20000k          6    4        -1 != W2_3
                   20000k          7    1         1  = U4_1
                   20000k          8    5   F     1 != V3_3
                   20000k          7    6   F     0 != V1_1
                   20000k          7    7         0  = U2_1
                   20000k          8    3   F     0 != W3_2
                   30000k          7    8   F     0  = U3_0
                   30000k          6    4   F    -1 != U2_0
                   30000k          8    5        -1  = V0_1
                   30000k          7    2   F    -1 != U2_2
 ! Time = 314.90s, Average fail depth = 19, Memory usage = 138.1 MB
 !               Branches  Non-fixed    W       Branch decision
                   30000k          8    1        -1  = W3_2
                   30000k          7    7   F     0 != V0_3
                   30000k          8    6         1 != V4_1
                   30000k          8    3         1 != U0_0
                   40000k          7    8   F    -1 != U3_2
                   40000k          8    5   F     0  = U1_0
                   40000k          7    4   F     0  = W3_1
                   40000k          7    2         1 != W2_3
                   40000k          6    6        -1 != W2_0
                   40000k          8    1         0 != U2_2
                   40000k          8    3   F    -1 != U4_2
                   40000k          7    7        -1 != W1_1
                   50000k          7    8   F     0  = U0_3
                   50000k          8    5        -1  = U4_0
                   50000k          7    2   F     0  = V1_1
                   50000k          6    6         1  = W2_2
                   50000k          7    4   F     1 != W3_1
                   50000k          7    1        -1  = V2_2
                   50000k          8    7   F     0 != U2_3
                   50000k          8    3   F    -1 != W2_1
 ! Time = 531.68s, Average fail depth = 19, Memory usage = 225.3 MB
 !               Branches  Non-fixed    W       Branch decision
                   60000k          7    8        -1  = V1_1
                   60000k          8    2         0  = V4_2
                   60000k          9    5   F    -1 != U0_1
                   60000k          8    1   F    -1 != U1_2
                   60000k          7    6         0 != U0_1
                   60000k          6    4         0 != V3_2
                   60000k          8    3        -1 != W2_2
                   60000k          7    7         0  = W3_3
                   70000k          6    8   F     0  = U3_3
                   70000k          7    2   F    -1 != W4_1
                   70000k          6    4   F     0 != U4_3
                   70000k          7    6   F     1 != V2_1
                   70000k          8    1         1 != U4_1
                   70000k         11    3        -1 != V0_1
                   70000k          8    5   F     0  = W4_1
                   70000k          7    7   F     0  = U4_1
                   80000k          7    8            -
                   80000k          8    2         0 != U4_1
                   80000k          7    6        -1 != V3_2
                   80000k          8    1   F     0  = W0_1
 ! Time = 839.24s, Average fail depth = 19, Memory usage = 345.7 MB
 !               Branches  Non-fixed    W       Branch decision
                   80000k          8    3   F    -1 != W3_2
                   80000k          8    5   F     1 != U4_1
                   80000k          7    4         1 != W2_1
                   80000k          7    7        -1  = U2_1
                   90000k          7    8   F     0  = V1_1
                   90000k          7    6   F    -1 != U4_2
                   90000k         10    2        -1 != W4_1
                   90000k          7    1         1  = W0_3
                   90000k          8    5   F    -1  = W1_3
                   90000k          8    3   F    -1  = W1_1
                   90000k          7    4   F     1  = V3_3
                   90000k          7    7        -1  = V1_2
                     100M          7    8   F    -1  = U0_2
                     100M          7    2         1  = U2_2
                     100M          7    6   F     1  = V3_0
                     100M          8    1   F     0 != V3_1
                     100M          7    5         1 != V1_0
                     100M          6    4   F    -1  = V0_3
                     100M          6    7   F     0 != U3_2
                     100M         10    3         0  = V0_2
 ! Time = 1058.29s, Average fail depth = 19, Memory usage = 432.8 MB
 !               Branches  Non-fixed    W       Branch decision
                     110M          7    8         0  = V0_3
                     110M          7    2         1  = V3_1
                     110M          7    6         1  = U4_1
                     110M          8    5        -1 != W3_1
                     110M          7    4         1 != W3_0
                     110M          8    1   F     1 != W1_3
                     110M          8    7   F    -1  = V0_0
                     110M          8    3         1  = U0_2
                     120M          7    8            -
                     120M          8    2        -1 != W2_3
                     120M          7    4   F     1 != W1_1
                     120M          8    6   F    -1  = V3_2
                     120M          7    1         1  = V3_3
                     120M          7    5   F    -1  = V2_0
                     120M          7    7   F    -1  = V2_2
                     120M          8    3        -1 != V2_3
                     130M          6    8   F     1  = U2_3
                     130M          8    2   F    -1 != W3_3
                     130M          7    1   F    -1  = W4_3
                     130M          6    4        -1  = W1_0
 ! Time = 1365.38s, Average fail depth = 19, Memory usage = 553.5 MB
 !               Branches  Non-fixed    W       Branch decision
                     130M          8    6   F     0  = V1_3
                     130M          9    5        -1 != V0_0
                     130M          7    7   F     0  = V2_2
                     130M          9    3   F     0 != U4_3
                     140M          7    8   F        -
                     140M          6    2   F     0  = W1_0
                     140M          6    1         1 != W2_1
                     140M          8    6        -1 != U4_3
                     140M          6    4         1  = U3_3
                     140M          8    5   F     1  = U3_3
                     140M          7    7   F     1  = U1_0
                     140M          7    3   F    -1 != U2_1
                     150M          7    8            -
                     150M          6    2         0  = W0_3
                     150M          7    1   F     0  = W1_3
                     150M          6    4        -1 != W4_1
                     150M          9    5   F     1  = W0_1
                     150M          7    6   F     0 != U2_1
                     150M         10    7         0  = U3_3
                     150M          7    3   F     0  = V2_1
 ! Time = 1598.40s, Average fail depth = 19, Memory usage = 647.3 MB
 !               Branches  Non-fixed    W       Branch decision
                     160M          7    8   F     0  = V2_0
                     160M          8    1         1  = W1_0
                     160M          6    2   F     0 != V0_2
                     160M          6    4        -1  = U4_1
                     160M          7    6         0 != W4_1
                     160M          7    5        -1 != W3_3
                     160M          8    7         1 != V2_2
                     160M          7    3   F    -1 != V1_2
                     170M          6    8         1  = V3_2
                     170M          8    1         1 != W3_3
                     170M          6    2         0 != V0_1
                     170M          6    4   F     0  = U0_0
                     170M          8    5   F    -1 != W3_3
                     170M          7    6   F    -1 != U0_0
                     170M         11    7        -1  = V4_0
                     170M          8    3   F     1 != V2_2
                     180M          7    8   F        -
                     180M          6    2         0 != U4_1
                     180M          6    4        -1  = V4_1
                     180M          7    1   F     0  = V0_3
 ! Time = 1891.29s, Average fail depth = 19, Memory usage = 762.0 MB
 !               Branches  Non-fixed    W       Branch decision
                     180M          7    6        -1  = W0_0
                     180M          8    5         0 != W1_2
                     180M          7    7        -1  = U2_1
                     180M          7    3   F    -1  = U1_2
                     190M          7    8            -
                     190M          6    2         0 != V1_2
                     190M          8    1        -1  = W4_1
                     190M          7    4   F     0  = U4_1
                     190M          7    6   F     0 != V4_3
                     190M          8    5   F     0  = W3_3
                     190M         11    7         0 != W4_1
                     190M          7    3         1 != W0_3
                     200M          7    8            -
                     200M          6    2        -1 != V3_1
                     200M          7    4         1 != W3_0
                     200M          7    6         0  = V0_3
                     200M          9    1         1 != V2_2
                     200M          8    5         0  = V1_1
                     200M          8    7   F    -1 != V2_1
                     200M          7    3        -1 != V1_1
 ! Time = 2131.29s, Average fail depth = 19, Memory usage = 856.6 MB
 !               Branches  Non-fixed    W       Branch decision
                     210M          7    8        -1 != U2_3
                     210M          6    2        -1 != U2_1
                     210M          6    4        -1  = V1_1
                     210M          7    6   F     1  = W0_3
                     210M          8    1         0 != V4_3
                     210M         10    5         1 != V1_3
                     210M          7    7        -1 != U4_1
                     210M          8    3   F    -1  = W0_0
                     220M          7    8   F    -1 != W2_1
                     220M          8    4         0 != W3_0
                     220M          8    6   F     0 != U4_3
                     220M          6    2         1  = U4_2
                     220M          9    1   F     0  = W0_3
                     220M          7    5   F     1 != U1_2
                     220M         10    3        -1 != V4_2
                     220M          8    7   F     0  = U1_1
                     230M          6    8         1 != U1_1
                     230M          7    4   F    -1 != V0_2
                     230M          8    6         0  = U3_0
                     230M          6    2   F    -1 != W2_1
 ! Time = 2419.99s, Average fail depth = 19, Memory usage = 967.6 MB
 !               Branches  Non-fixed    W       Branch decision
                     230M          7    1   F    -1 != U2_0
                     230M          9    5   F     1 != V4_3
                     230M          8    7   F     0  = U2_1
                     230M          7    3   F    -1  = U3_1
                     240M          5    8   F    -1  = U0_2
                     240M          7    6   F    -1 != U0_0
                     240M          6    2         0 != W1_1
                     240M          6    4         0  = U4_0
                     240M          8    1        -1 != V3_1
                     240M          8    5   F     1 != V3_2
                     240M          8    7        -1  = W1_1
                     240M         12    3         0  = W1_2
                     250M          6    8         0  = U0_1
                     250M          7    6         1  = W3_0
                     250M          8    4         1  = W4_1
                     250M          6    2   F     0  = U2_2
                     250M          8    1   F     0  = W0_3
                     250M         11    3        -1  = W3_0
                     250M          9    5         0 != U0_1
                     250M         12    7   F    -1  = W4_3
 ! Time = 2662.56s, Average fail depth = 19, Memory usage = 1.1 GB
 !               Branches  Non-fixed    W       Branch decision
                     260M          6    8   F        -
                     260M          8    6   F     0  = V4_3
                     260M          6    4   F     0  = U2_3
                     260M          6    2         0 != U3_0
                     260M          7    1         1 != W0_1
                     260M          8    5         0 != W2_1
                     260M          9    3   F     0  = U3_0
                     260M          7    7        -1 != V1_1
                     270M          7    8   F     0 != W1_2
                     270M          8    4        -1  = U1_0
                     270M          6    2        -1 != V4_3
                     270M          7    6         0  = U3_0
                     270M          7    1        -1  = V0_2
                     270M          8    5        -1  = V0_1
                     270M          7    7        -1 != U1_2
                     270M          8    3         1  = W4_1
                     280M          6    8   F    -1  = V2_2
                     280M          7    4   F     1 != W3_1
                     280M          7    2         0 != U4_1
                     280M          6    6   F     1  = W4_0
 ! Time = 2950.15s, Average fail depth = 19, Memory usage = 1.2 GB
 !               Branches  Non-fixed    W       Branch decision
                     280M          9    1         1  = U2_1
                     280M          8    5   F    -1  = V4_0
                     280M         11    7         1  = V2_3
                     280M          8    3        -1  = V2_0
                     290M          6    8        -1  = W2_0
                     290M          8    4   F    -1 != W4_1
                     290M          6    2   F     1  = U3_1
                     290M          8    6   F     0  = V2_1
                     290M          8    1         0 != U4_3
                     290M          8    5   F    -1  = U0_0
                     290M         12    3        -1 != V0_2
                     290M          9    7         0  = V0_2
                     300M          5    8         0 != U2_2
                     300M          6    2   F     0  = W3_0
                     300M          7    4         1 != V3_3
                     300M          7    6        -1 != U0_3
                     300M          8    1   F     0  = U0_1
                     300M          8    5         0 != W3_1
                     300M          8    3         0  = W0_3
                     300M          8    7         0 != W3_1
 ! Time = 3197.56s, Average fail depth = 19, Memory usage = 1.3 GB
 !               Branches  Non-fixed    W       Branch decision
                     310M          7    8   F     1  = U0_3
                     310M         10    2         1  = U3_0
                     310M          7    4   F     0 != V0_0
                     310M          7    6        -1 != W2_0
                     310M          9    1         1 != V3_3
                     310M          8    5         1  = U0_1
                     310M          8    3         0  = V3_2
                     310M          7    7   F     0 != V3_2
                     320M          7    8        -1  = W3_0
                     320M          8    2   F     1 != V3_1
                     320M          7    4   F     1  = W2_1
                     320M          8    6         0  = U3_0
                     320M          7    1   F    -1  = W4_3
                     320M          7    5         0 != V2_2
                     320M          8    3   F    -1 != W2_0
                     320M          7    7         1 != U3_1
                     330M          7    4         0 != W3_0
                     330M          7    8   F        -
                     330M          8    2   F     1  = W4_1
                     330M          7    6   F    -1 != U2_0
 ! Time = 3472.95s, Average fail depth = 19, Memory usage = 1.4 GB
 !               Branches  Non-fixed    W       Branch decision
                     330M          7    1   F     1 != W1_3
                     330M         12    3   F    -1 != W1_3
                     330M          9    5   F     0 != W2_0
                     330M          9    7         1  = U2_2
                     340M          7    8        -1  = U1_1
                     340M          9    2         0  = V1_1
                     340M          7    4         0 != W3_1
                     340M          9    6   F     1  = W2_1
                     340M          8    1        -1  = W1_1
                     340M          8    3   F    -1  = V2_2
                     340M          8    5   F     1  = W4_0
                     340M          9    7         0  = V0_3
                     350M          7    8   F     0 != V2_1
                     350M          8    2         1  = V4_1
                     350M          7    6         0 != V2_0
                     350M          8    4         0 != W1_1
                     350M          8    1   F    -1 != W1_3
                     350M          7    3   F     0 != V0_1
                     350M          8    5   F     0  = W2_1
                     350M          8    7        -1 != V4_0
 ! Time = 3728.43s, Average fail depth = 19, Memory usage = 1.5 GB
 !               Branches  Non-fixed    W       Branch decision
                     360M          8    2        -1 != W2_0
                     360M          7    6   F     1 != W2_1
                     360M          7    8   F    -1  = V1_2
                     360M          7    4   F    -1  = V3_3
                     360M          8    1         1  = V1_3
                     360M          8    3   F    -1  = U2_2
                     360M          8    5         0  = W4_3
                     360M          8    7   F    -1  = W2_2
                     370M          8    2         0  = W3_0
                     370M          7    6        -1 != W3_0
                     370M          6    8   F     0  = V1_1
                     370M          8    4   F    -1 != U3_1
                     370M          7    1         0 != U3_2
                     370M          7    3        -1  = V1_3
                     370M          8    5        -1 != U2_0
                     370M         11    7        -1 != V2_2
                     380M          8    6   F     1  = V4_2
                     380M          9    2         1  = V2_2
                     380M          7    8            -
                     380M          8    4         1 != V0_1
 ! Time = 3998.77s, Average fail depth = 19, Memory usage = 1.6 GB
 !               Branches  Non-fixed    W       Branch decision
                     380M          7    1   F     0 != W1_2
                     380M         12    3   F     1  = U3_2
                     380M          7    5         1 != V0_0
                     380M         12    7        -1 != V4_3
                     390M          8    2         0 != U3_1
                     390M          7    6         0  = V3_1
                     390M          7    8         1 != W2_1
                     390M          6    4         0  = W4_1
                     390M          8    1         0  = U4_2
                     390M         13    7   F     1  = W1_1
                     390M          7    5        -1 != U4_0
                     390M          6    3         0 != U1_1
                     400M          7    2        -1 != V1_2
                     400M          8    6         0 != W4_1
                     400M          7    8        -1  = V0_1
                     400M          8    4   F    -1  = V3_1
                     400M          7    1   F     1 != U0_2
                     400M          7    5   F     1 != W3_1
                     400M          8    3        -1 != W0_3
                     400M         12    7        -1 != W4_2
 ! Time = 4257.65s, Average fail depth = 19, Memory usage = 1.7 GB
 !               Branches  Non-fixed    W       Branch decision
                     410M          8    2        -1  = W0_0
                     410M          8    6   F     1 != U4_1
                     410M          7    8   F        -
                     410M          7    4   F     1  = V4_1
                     410M          9    1   F     0  = W1_2
                     410M         10    3   F     0 != W4_3
                     410M          9    7   F    -1  = U4_3
                     410M          9    5         0 != U2_2
                     420M          7    2         1 != V4_3
                     420M          7    6         1  = W3_1
                     420M          7    4         0  = V1_3
                     420M          7    8         1 != V4_3
                     420M          7    1        -1 != U4_3
                     420M          8    7         1 != U1_1
                     420M          8    3        -1  = W4_3
                     420M          9    5         1 != W3_1
                     430M          7    6         0 != U4_1
                     430M          6    2        -1 != V4_0
                     430M          7    4   F    -1  = W2_2
                     430M          7    8   F     1  = U2_1
 ! Time = 4523.49s, Average fail depth = 19, Memory usage = 1.8 GB
 !               Branches  Non-fixed    W       Branch decision
                     430M          8    1   F     0  = V2_2
                     430M          8    7        -1 != V2_3
                     430M          8    3   F    -1  = W0_1
                     430M          8    5        -1  = U1_2
                     440M          6    6   F    -1  = W0_2
                     440M          8    2   F     0  = W0_0
                     440M          8    4   F     0  = V4_3
                     440M          7    8        -1  = W4_0
                     440M          7    1        -1  = W1_3
                     440M         12    7         1 != V3_1
                     440M          9    3         1 != W4_1
                     440M          7    5         0 != W3_3
                     450M          7    6   F     0  = U4_0
                     450M          7    2        -1 != U2_1
                     450M          8    4   F     1  = W2_0
                     450M          7    8        -1  = W2_0
                     450M          9    1         1 != W2_1
                     450M          9    7         1 != V4_2
                     450M         10    3   F     0 != W3_1
                     450M          7    5   F    -1  = W3_3
 ! Time = 4800.06s, Average fail depth = 19, Memory usage = 1.9 GB
 !               Branches  Non-fixed    W       Branch decision
                     460M          9    2         1 != V3_1
                     460M          7    6   F     1  = U1_0
                     460M          7    8         0 != W1_0
                     460M          7    4        -1  = V3_0
                     460M          7    1   F     0  = V3_3
                     460M          7    3        -1 != U2_2
                     460M          8    7   F     0 != U1_3
                     460M          7    5   F     1  = V2_3
                     470M          7    6   F     0  = U4_0
                     470M          7    2         1  = V0_2
                     470M          7    8   F        -
                     470M          8    4         1  = U0_0
                     470M          7    1        -1  = W1_1
                     470M          8    7        -1 != V1_2
                     470M         12    3   F     0 != V0_1
                     470M          8    5         0 != V0_3
                     480M          7    6   F     1  = W4_1
                     480M          6    2   F    -1  = W4_0
                     480M          7    8   F     1  = V4_2
                     480M          8    4        -1 != U2_0
 ! Time = 5057.02s, Average fail depth = 19, Memory usage = 2.0 GB
 !               Branches  Non-fixed    W       Branch decision
                     480M          7    1   F     0  = U2_1
                     480M          7    7         1 != V2_2
                     480M          6    3         1 != U4_2
                     480M          8    5   F     1  = U0_2
                     490M          8    6   F     0 != V2_0
                     490M          8    2         0 != W4_1
                     490M          7    8            -
                     490M          7    4   F    -1  = W0_1
                     490M          8    1   F    -1 != W0_1
                     490M         10    7   F    -1  = U0_1
                     490M          7    3        -1 != U0_3
                     490M          8    5   F     0  = W1_1
                     500M          8    2        -1  = W4_1
                     500M          7    6   F     0 != V2_0
                     500M          6    8            -
                     500M          8    4        -1  = U2_1
                     500M          7    1            -
                     500M         12    7         1 != V4_2
                     500M         11    3         1 != V2_2
                     500M          9    5         0  = W2_2
 ! Time = 5351.24s, Average fail depth = 19, Memory usage = 2.1 GB
 !               Branches  Non-fixed    W       Branch decision
                     510M          9    2         1 != U0_0
                     510M          7    8   F     1  = W2_0
                     510M          6    6   F    -1  = U1_2
                     510M          8    4   F     1  = W3_1
                     510M         11    1        -1 != V0_3
                     510M         11    7   F     0  = W3_3
                     510M         12    3         1 != V2_0
                     510M          8    5         0 != W1_1
                     520M          8    2   F     0  = V4_0
                     520M          7    4         1 != V2_3
                     520M          7    8        -1 != U2_2
                     520M          7    6         0 != W0_1
                     520M          7    1   F     1 != V2_1
                     520M          8    3   F     1  = U0_1
                     520M         10    7   F     1  = U4_3
                     520M          9    5   F     0  = U2_1
                     530M          9    2        -1  = W1_1
                     530M          7    6         1 != V2_0
                     530M          7    8   F    -1 != U2_1
                     530M          7    4        -1 != V3_0
 ! Time = 5584.27s, Average fail depth = 19, Memory usage = 2.2 GB
 !               Branches  Non-fixed    W       Branch decision
                     530M          7    1   F    -1  = U0_3
                     530M          9    3        -1 != U4_3
                     530M         11    7         0 != U0_0
                     540M          9    2        -1 != V1_1
                     530M          8    5   F    -1  = V2_2
                     540M          7    6   F    -1  = V4_3
                     540M          7    8   F    -1 != W2_0
                     540M          8    4         1 != W1_1
                     540M          8    1   F    -1  = W4_2
                     540M         13    3   F     0 != U3_2
                     540M         10    7        -1 != V0_1
                     550M          7    2   F     1  = U4_2
                     540M          8    5   F     0 != U4_2
                     550M          7    6        -1 != U1_0
                     550M          6    8   F     0  = W4_0
                     550M          8    4   F    -1 != W3_0
                     550M          9    1         0 != V1_1
                     550M          9    3   F    -1 != W1_1
                     550M          9    7   F     1  = U1_0
                     560M          6    2   F     1 != V0_1
 ! Time = 5881.93s, Average fail depth = 19, Memory usage = 2.3 GB
 !               Branches  Non-fixed    W       Branch decision
                     550M          9    5         1  = U1_0
                     560M          7    6         0 != V3_3
                     560M          7    8   F    -1 != V0_2
                     560M          6    4   F     1  = V2_2
                     560M          8    1         0 != V4_3
                     560M          8    3   F    -1  = U3_0
                     560M          7    7        -1 != W1_1
                     570M          9    2         1 != U2_1
                     570M          7    6        -1 != W3_1
                     570M          7    8   F    -1  = U3_3
                     570M          7    4   F    -1  = W2_1
                     560M          8    5   F     1  = W2_2
                     570M          9    1   F    -1  = W2_2
                     570M         13    3   F     1 != V2_1
                     570M          8    7        -1 != U1_3
                     580M          8    2        -1  = U2_2
                     580M          8    6        -1 != W1_0
                     580M          7    8   F     0 != U0_1
                     580M          7    4   F     0  = W0_1
                     570M          8    5        -1  = V0_3
 ! Time = 6115.88s, Average fail depth = 19, Memory usage = 2.4 GB
 !               Branches  Non-fixed    W       Branch decision
                     580M          7    1   F    -1 != V1_2
                     580M         10    3        -1 != U1_3
                     580M         12    7   F     1 != V4_2
                     590M          8    2   F     0 != W2_3
                     590M          7    8   F    -1  = V0_1
                     580M          6    5   F    -1  = W1_1
                     590M          7    6   F     1 != V2_1
                     590M          8    4         1  = U1_0
                     590M          9    1   F     0 != U2_3
                     590M         12    7   F    -1  = V2_1
                     590M         13    3        -1  = U0_1
                     600M          9    2         1  = V1_0
                     590M          7    5         1 != W0_0
                     600M          7    8         1  = U4_1
                     600M          8    6         1 != W4_2
                     600M          6    4        -1  = V2_2
                     600M          7    1   F     1 != V3_1
                     600M          8    3   F    -1  = V3_3
                     600M         10    7   F    -1 != U2_3
                     610M          7    2   F     1 != W1_3
 ! Time = 6425.61s, Average fail depth = 19, Memory usage = 2.5 GB
 !               Branches  Non-fixed    W       Branch decision
                     610M          7    6   F     1  = W4_2
                     610M          7    8            -
                     610M          7    4   F     1 != W4_0
                     600M          8    5   F     0  = V1_0
                     610M          7    1   F     1 != U2_3
                     610M         10    3   F     0 != V2_1
                     610M          8    7   F    -1 != U1_0
                     620M          8    2         1 != W1_0
                     620M          7    6   F     0  = V3_1
                     620M          7    8         0 != V0_2
                     620M         11    4   F     0  = U1_0
                     610M          8    5        -1  = V3_0
                     620M          7    1   F     0  = W3_3
                     620M          9    3   F    -1 != V2_2
                     620M          8    7         0  = U3_2
                     630M         11    2   F    -1  = V1_3
                     630M          8    6   F    -1 != W4_2
                     630M          7    8   F    -1 != V2_0
                     630M          7    4   F     1  = U4_0
                     620M          8    5   F     0  = V2_0
 ! Time = 6645.00s, Average fail depth = 19, Memory usage = 2.6 GB
 !               Branches  Non-fixed    W       Branch decision
                     630M          8    1        -1 != U4_2
                     630M          7    3   F     1 != U2_1
                     630M          7    7   F    -1  = V1_1
                     640M          9    2         0  = W0_3
                     640M          7    6   F     1 != V2_0
                     640M          8    4        -1  = V1_1
                     640M          7    8         1 != W2_1
                     630M          7    5         1  = U4_1
                     640M          8    1         1  = W0_3
                     640M          9    3   F    -1  = U3_2
                     640M         14    7         0  = V0_1
                     650M         10    2   F     0 != U3_0
                     650M          7    6         1  = W3_0
                     650M          7    4   F     0  = U2_1
                     650M          7    8         0 != W4_3
                     650M          7    1         0 != V3_3
                     640M          7    5         0  = V1_0
                     650M          8    3         0 != V4_3
                     650M          8    7   F    -1 != W2_1
                     660M          7    2   F     1  = U2_1
 ! Time = 6937.97s, Average fail depth = 19, Memory usage = 2.7 GB
 !               Branches  Non-fixed    W       Branch decision
                     660M          8    6         0 != W0_0
                     660M          7    4        -1 != W0_2
                     660M          7    8         1 != W2_3
                     660M          7    1         1  = W0_2
                     650M          7    5         0  = U0_2
                     660M         10    3   F     1 != V4_3
                     660M          7    7   F    -1  = U4_0
                     670M          9    2   F     0 != U3_1
                     670M          7    6         0 != V1_0
                     670M          7    4         0  = W0_2
                     670M          6    8            -
                     670M          8    1   F    -1 != U3_1
                     660M          8    5         0  = U2_2
                     670M          8    3         0  = W3_3
                     670M          8    7        -1 != W2_1
submitit WARNING (2023-04-30 15:42:42,330) - Bypassing signal SIGCONT
submitit INFO (2023-04-30 15:42:42,338) - Job has timed out. Ran 119 minutes out of requested 121 minutes.
submitit WARNING (2023-04-30 15:42:42,338) - Caught signal SIGUSR2 on cpunode2: this job is timed-out.
submitit INFO (2023-04-30 15:42:42,338) - Job not requeued because: timed-out and not checkpointable.
submitit ERROR (2023-04-30 15:42:42,366) - Submitted job triggered an exception
